15106,17344,9166,15788,24942,2903,13030,3997,21220,19697,12543,19723,19487,19694,19583,9918,1577,6437,24319,5058,16464,21101,19577,9236,2359,5279,9577,14584,21882,10601,9744,18258,7081,23417,15297,11455,25024,7969,10984,11945,24866,5486,20316,14894,1796,6714,5047,26004,24295,20991,21520,21462,2375,25096,23682,14096,3337,2548,22335,3124,22776,3352,15106